Version identifier: 22.1.0.0 | 2022-03-09 | 1a383f8ce
CPXPARAM_Read_DataCheck                          1
CPXPARAM_TimeLimit                               600
Tried aggregator 3 times.
MIP Presolve eliminated 220340 rows and 14266 columns.
MIP Presolve modified 2001 coefficients.
Aggregator did 208490 substitutions.
Reduced MIP has 16845 rows, 212994 columns, and 443235 nonzeros.
Reduced MIP has 212944 binaries, 50 generals, 0 SOSs, and 0 indicators.
Presolve time = 3.25 sec. (3214.54 ticks)
Tried aggregator 1 time.
Detecting symmetries...
Reduced MIP has 16845 rows, 212994 columns, and 443235 nonzeros.
Reduced MIP has 212944 binaries, 50 generals, 0 SOSs, and 0 indicators.
Presolve time = 0.65 sec. (343.71 ticks)
Probing fixed 75 vars, tightened 0 bounds.
Probing changed sense of 20 constraints.
Probing time = 0.53 sec. (60.08 ticks)
Clique table members: 430254.
MIP emphasis: balance optimality and feasibility.
MIP search method: dynamic search.
Parallel mode: deterministic, using up to 8 threads.
Root relaxation solution time = 4.16 sec. (1585.63 ticks)

        Nodes                                         Cuts/
   Node  Left     Objective  IInf  Best Integer    Best Bound    ItCnt     Gap

      0     0       50.3980 12527                     50.3980       29         
      0     0       82.0000  1195                   Fract: 32    27769         
      0     0       82.0000  1088                    Cuts: 95    47749         
      0     0       82.0000  1189                ZeroHalf: 73    67795         

Zero-half cuts applied:  122
Lift and project cuts applied:  2
Gomory fractional cuts applied:  36

Root node processing (before b&c):
  Real time             =  600.09 sec. (253866.27 ticks)
Parallel b&c, 8 threads:
  Real time             =    0.00 sec. (0.00 ticks)
  Sync time (average)   =    0.00 sec.
  Wait time (average)   =    0.00 sec.
                          ------------
Total (root+branch&cut) =  600.09 sec. (253866.27 ticks)
